40
7
5
2
36 30
100 45
130 50
40 130
70 110
135 100
36 30
100 45
130 50
40 130
70 110
135 100
79 112
4 44
28 87
55 130
84 21
1 117
17 147
40 109
48 69
1 52
64 110
37 33
146 95
139 100
82 28
21 37
152 106
100 5
75 147
92 123
159 84
126 95
110 42
74 105
95 91
4 111
105 2
5 30
106 113
56 132
13 27
61 32
120 16
87 45
111 19
145 102
31 136
100 42
89 44
95 86
